100
128
12
37
22
27
4
7
9
40
2
1
32
1
29
22
4
52
3
47
10
36
62
44
49
36
60
15
42
3
58
13
10
1
43
7
59
19
58
46
8
51
64
59
55
46
15
52
52
35
7
14
50
45
12
57
32
56
58
47
46
41
1
4
54
3
49
44
1
9
59
53
2
11
18
53
2
24
5
5
50
7
58
16
25
34
39
38
39
31
32
45
27
37
4
52
46
32
35
32
3
50